RobustCbss/GLKH-1.1/TMP/mtspf.pid11064.atsp
NAME : mtspf.pid11064.gtsp
TYPE : ATSP
DIMENSION : 27
EDGE_WEIGHT_TYPE : EXPLICIT
EDGE_WEIGHT_FORMAT : FULL_MATRIX
EDGE_WEIGHT_SECTION
999999 5368709 5368709 5368731 5368732 5368731 5368730 5368738 5368739 5368738 5368737 5368735 5368736 5368735 5368734 5368719 5368720 5368721 5368720 5368735 5368736 5368735 5368734 5368731 5368732 5368731 5368730 
5368709 999999 5368709 5368725 5368724 5368723 5368724 5368724 5368725 5368726 5368725 5368721 5368722 5368723 5368722 5368729 5368728 5368729 5368730 5368741 5368740 5368739 5368740 5368731 5368730 5368729 5368730 
5368709 5368709 999999 5368753 5368754 5368753 5368752 5368760 5368761 5368760 5368759 5368757 5368758 5368757 5368756 5368729 5368730 5368729 5368728 5368757 5368758 5368757 5368756 5368753 5368754 5368753 5368752 
5368709 5368709 5368709 999999 0 10737418 10737418 5368719 5368720 5368719 5368718 5368716 5368717 5368718 5368717 5368736 5368735 5368734 5368735 5368728 5368729 5368728 5368727 5368718 5368719 5368718 5368717 
5368709 5368709 5368709 10737418 999999 0 10737418 5368718 5368719 5368720 5368719 5368717 5368718 5368719 5368718 5368735 5368734 5368735 5368736 5368727 5368728 5368727 5368726 5368717 5368718 5368717 5368716 
5368709 5368709 5368709 10737418 10737418 999999 0 5368717 5368718 5368719 5368718 5368718 5368717 5368718 5368719 5368736 5368735 5368736 5368737 5368728 5368727 5368726 5368727 5368718 5368717 5368716 5368717 
5368709 5368709 5368709 0 10737418 10737418 999999 5368718 5368719 5368718 5368717 5368717 5368716 5368717 5368718 5368737 5368736 5368735 5368736 5368729 5368728 5368727 5368728 5368719 5368718 5368717 5368718 
5368709 5368709 5368709 5368719 5368718 5368717 5368718 999999 0 10737418 10737418 5368713 5368712 5368713 5368714 5368743 5368742 5368741 5368742 5368731 5368732 5368731 5368730 5368721 5368722 5368721 5368720 
5368709 5368709 5368709 5368718 5368717 5368718 5368719 10737418 999999 0 10737418 5368714 5368713 5368714 5368715 5368742 5368741 5368742 5368743 5368730 5368731 5368730 5368729 5368720 5368721 5368720 5368719 
5368709 5368709 5368709 5368719 5368718 5368719 5368720 10737418 10737418 999999 0 5368715 5368714 5368715 5368716 5368743 5368742 5368743 5368744 5368731 5368730 5368729 5368730 5368721 5368720 5368719 5368720 
5368709 5368709 5368709 5368720 5368719 5368718 5368719 0 10737418 10737418 999999 5368714 5368713 5368714 5368715 5368744 5368743 5368742 5368743 5368732 5368731 5368730 5368731 5368722 5368721 5368720 5368721 
5368709 5368709 5368709 5368718 5368719 5368718 5368717 5368715 5368716 5368715 5368714 999999 0 10737418 10737418 5368740 5368739 5368738 5368739 5368734 5368735 5368734 5368733 5368724 5368725 5368724 5368723 
5368709 5368709 5368709 5368717 5368718 5368717 5368716 5368714 5368715 5368714 5368713 10737418 999999 0 10737418 5368739 5368738 5368739 5368740 5368733 5368734 5368733 5368732 5368723 5368724 5368723 5368722 
5368709 5368709 5368709 5368718 5368717 5368716 5368717 5368713 5368714 5368713 5368712 10737418 10737418 999999 0 5368740 5368739 5368740 5368741 5368734 5368733 5368732 5368733 5368724 5368723 5368722 5368723 
5368709 5368709 5368709 5368719 5368718 5368717 5368718 5368714 5368715 5368714 5368713 0 10737418 10737418 999999 5368741 5368740 5368739 5368740 5368735 5368734 5368733 5368734 5368725 5368724 5368723 5368724 
5368709 5368709 5368709 5368736 5368737 5368736 5368735 5368743 5368744 5368743 5368742 5368740 5368741 5368740 5368739 999999 0 10737418 10737418 5368740 5368741 5368740 5368739 5368736 5368737 5368736 5368735 
5368709 5368709 5368709 5368735 5368736 5368737 5368736 5368742 5368743 5368744 5368743 5368739 5368740 5368741 5368740 10737418 999999 0 10737418 5368739 5368740 5368741 5368740 5368735 5368736 5368737 5368736 
5368709 5368709 5368709 5368734 5368735 5368736 5368735 5368741 5368742 5368743 5368742 5368738 5368739 5368740 5368739 10737418 10737418 999999 0 5368738 5368739 5368740 5368739 5368734 5368735 5368736 5368735 
5368709 5368709 5368709 5368735 5368736 5368735 5368734 5368742 5368743 5368742 5368741 5368739 5368740 5368739 5368738 0 10737418 10737418 999999 5368739 5368740 5368739 5368738 5368735 5368736 5368735 5368734 
5368709 5368709 5368709 5368726 5368727 5368728 5368727 5368729 5368730 5368731 5368730 5368732 5368733 5368734 5368733 5368740 5368739 5368738 5368739 999999 0 10737418 10737418 5368720 5368721 5368722 5368721 
5368709 5368709 5368709 5368727 5368728 5368729 5368728 5368730 5368731 5368732 5368731 5368733 5368734 5368735 5368734 5368739 5368738 5368739 5368740 10737418 999999 0 10737418 5368721 5368722 5368723 5368722 
5368709 5368709 5368709 5368728 5368727 5368728 5368729 5368731 5368730 5368731 5368732 5368734 5368733 5368734 5368735 5368740 5368739 5368740 5368741 10737418 10737418 999999 0 5368722 5368721 5368722 5368723 
5368709 5368709 5368709 5368727 5368726 5368727 5368728 5368730 5368729 5368730 5368731 5368733 5368732 5368733 5368734 5368741 5368740 5368739 5368740 0 10737418 10737418 999999 5368721 5368720 5368721 5368722 
5368709 5368709 5368709 5368716 5368717 5368718 5368717 5368719 5368720 5368721 5368720 5368722 5368723 5368724 5368723 5368736 5368735 5368734 5368735 5368722 5368723 5368722 5368721 999999 0 10737418 10737418 
5368709 5368709 5368709 5368717 5368718 5368719 5368718 5368720 5368721 5368722 5368721 5368723 5368724 5368725 5368724 5368735 5368734 5368735 5368736 5368721 5368722 5368721 5368720 10737418 999999 0 10737418 
5368709 5368709 5368709 5368718 5368717 5368718 5368719 5368721 5368720 5368721 5368722 5368724 5368723 5368724 5368725 5368736 5368735 5368736 5368737 5368722 5368721 5368720 5368721 10737418 10737418 999999 0 
5368709 5368709 5368709 5368717 5368716 5368717 5368718 5368720 5368719 5368720 5368721 5368723 5368722 5368723 5368724 5368737 5368736 5368735 5368736 5368723 5368722 5368721 5368722 0 10737418 10737418 999999 
EOF
