RobustCbss/GLKH-1.1/TMP/mtspf.pid11064.tour
NAME : mtspf.pid11064.gtsp.48318435.tour
COMMENT : Length = 48318435
COMMENT : Found by LKH [Keld Helsgaun] Tue Mar  4 18:48:11 2025
TYPE : TOUR
DIMENSION : 27
TOUR_SECTION
1
16
17
18
19
2
12
13
14
15
11
8
9
10
6
7
4
5
27
24
25
26
22
23
20
21
3
-1
EOF
